20180619 21830 21840 20320 20320 2099677 4356754176 6.73 0.87 -10.01 1123216 976461 1.15 18.78
20180615 22600 23130 22020 22580 2138700 4811430400 4.77 1.07 -3.05 1132415 1006285 1.13 19.13
20180614 24510 24860 23150 23290 3477821 8310515712 6.65 2.14 -9.45 2129184 1348638 1.58 31.11
20180613 24550 26360 23560 25720 6332171 15809621760 11.67 104.97 7.21 3170135 3162036 1.00 56.64
20180612 23990 23990 23990 23990 144924 347672464 0.00 8.04 10.00 144924 - - 1.30
20180611 21810 21810 21810 21810 19323 42143158 0.00 1.16 9.98 19323 - - 0.17
20180608 16520 19830 16520 19830 16726 33034126 24.04 - 44.01 16726 - - 0.15
